myproject/instances/20nodes/rnd37_20.tsp
NAME : rnd37_20.tsp
TYPE : TSP
DIMENSION : 20
EDGE_WEIGHT_TYPE : EUC_2D
NODE_COORD_SECTION
1 824 580
2 630 573
3 468 224
4 351 714
5 730 332
6 509 227
7 15 657
8 634 140
9 867 468
10 130 836
11 845 737
12 770 86
13 750 944
14 699 671
15 528 53
16 93 511
17 197 18
18 83 563
19 53 619
20 748 136
