myproject/instances/20nodes/rnd37_20.opt.tour
NAME : rnd37_20.tsp.tsp.opt.tour
TYPE : TOUR
DIMENSION : 20
TOUR_SECTION
1
9
5
20
12
8
15
6
3
17
16
18
19
7
10
4
2
14
13
11
-1